c n orig vars 160
p cnf 162 1413
1 2 -161 0
3 4 -161 0
5 6 -161 0
7 8 -161 0
9 10 -161 0
11 12 -161 0
13 14 -161 0
15 16 -161 0
17 18 -161 0
19 20 -161 0
21 22 -161 0
23 24 -161 0
25 26 -161 0
27 28 -161 0
-29 -40 -162 0
-30 -51 -162 0
-31 -62 -162 0
-32 -73 -162 0
-33 -84 -162 0
-34 -95 -162 0
-35 -106 -162 0
-36 -117 -162 0
-37 -128 -162 0
-38 -139 -162 0
-39 -150 -162 0
-41 -52 -162 0
-42 -63 -162 0
-43 -74 -162 0
-44 -85 -162 0
-45 -96 -162 0
-46 -107 -162 0
-47 -118 -162 0
-48 -129 -162 0
-49 -140 -162 0
-50 -151 -162 0
-53 -64 -162 0
-54 -75 -162 0
-55 -86 -162 0
-56 -97 -162 0
-57 -108 -162 0
-58 -119 -162 0
-59 -130 -162 0
-60 -141 -162 0
-61 -152 -162 0
-65 -76 -162 0
-66 -87 -162 0
-67 -98 -162 0
-68 -109 -162 0
-69 -120 -162 0
-70 -131 -162 0
-71 -142 -162 0
-72 -153 -162 0
-77 -88 -162 0
-78 -99 -162 0
-79 -110 -162 0
-80 -121 -162 0
-81 -132 -162 0
-82 -143 -162 0
-83 -154 -162 0
-89 -100 -162 0
-90 -111 -162 0
-91 -122 -162 0
-92 -133 -162 0
-93 -144 -162 0
-94 -155 -162 0
-101 -112 -162 0
-102 -123 -162 0
-103 -134 -162 0
-104 -145 -162 0
-105 -156 -162 0
-113 -124 -162 0
-114 -135 -162 0
-115 -146 -162 0
-116 -157 -162 0
-125 -136 -162 0
-126 -147 -162 0
-127 -158 -162 0
-137 -148 -162 0
-138 -159 -162 0
-149 -160 -162 0
-29 -41 30 -162 0
-29 -42 31 -162 0
-29 -43 32 -162 0
-29 -44 33 -162 0
-29 -45 34 -162 0
-29 -46 35 -162 0
-29 -47 36 -162 0
-29 -48 37 -162 0
-29 -49 38 -162 0
-29 -50 39 -162 0
-30 -52 29 -162 0
-30 -53 31 -162 0
-30 -54 32 -162 0
-30 -55 33 -162 0
-30 -56 34 -162 0
-30 -57 35 -162 0
-30 -58 36 -162 0
-30 -59 37 -162 0
-30 -60 38 -162 0
-30 -61 39 -162 0
-31 -63 29 -162 0
-31 -64 30 -162 0
-31 -65 32 -162 0
-31 -66 33 -162 0
-31 -67 34 -162 0
-31 -68 35 -162 0
-31 -69 36 -162 0
-31 -70 37 -162 0
-31 -71 38 -162 0
-31 -72 39 -162 0
-32 -74 29 -162 0
-32 -75 30 -162 0
-32 -76 31 -162 0
-32 -77 33 -162 0
-32 -78 34 -162 0
-32 -79 35 -162 0
-32 -80 36 -162 0
-32 -81 37 -162 0
-32 -82 38 -162 0
-32 -83 39 -162 0
-33 -85 29 -162 0
-33 -86 30 -162 0
-33 -87 31 -162 0
-33 -88 32 -162 0
-33 -89 34 -162 0
-33 -90 35 -162 0
-33 -91 36 -162 0
-33 -92 37 -162 0
-33 -93 38 -162 0
-33 -94 39 -162 0
-34 -96 29 -162 0
-34 -97 30 -162 0
-34 -98 31 -162 0
-34 -99 32 -162 0
-34 -100 33 -162 0
-34 -101 35 -162 0
-34 -102 36 -162 0
-34 -103 37 -162 0
-34 -104 38 -162 0
-34 -105 39 -162 0
-35 -107 29 -162 0
-35 -108 30 -162 0
-35 -109 31 -162 0
-35 -110 32 -162 0
-35 -111 33 -162 0
-35 -112 34 -162 0
-35 -113 36 -162 0
-35 -114 37 -162 0
-35 -115 38 -162 0
-35 -116 39 -162 0
-36 -118 29 -162 0
-36 -119 30 -162 0
-36 -120 31 -162 0
-36 -121 32 -162 0
-36 -122 33 -162 0
-36 -123 34 -162 0
-36 -124 35 -162 0
-36 -125 37 -162 0
-36 -126 38 -162 0
-36 -127 39 -162 0
-37 -129 29 -162 0
-37 -130 30 -162 0
-37 -131 31 -162 0
-37 -132 32 -162 0
-37 -133 33 -162 0
-37 -134 34 -162 0
-37 -135 35 -162 0
-37 -136 36 -162 0
-37 -137 38 -162 0
-37 -138 39 -162 0
-38 -140 29 -162 0
-38 -141 30 -162 0
-38 -142 31 -162 0
-38 -143 32 -162 0
-38 -144 33 -162 0
-38 -145 34 -162 0
-38 -146 35 -162 0
-38 -147 36 -162 0
-38 -148 37 -162 0
-38 -149 39 -162 0
-39 -151 29 -162 0
-39 -152 30 -162 0
-39 -153 31 -162 0
-39 -154 32 -162 0
-39 -155 33 -162 0
-39 -156 34 -162 0
-39 -157 35 -162 0
-39 -158 36 -162 0
-39 -159 37 -162 0
-39 -160 38 -162 0
-40 -30 41 -162 0
-40 -31 42 -162 0
-40 -32 43 -162 0
-40 -33 44 -162 0
-40 -34 45 -162 0
-40 -35 46 -162 0
-40 -36 47 -162 0
-40 -37 48 -162 0
-40 -38 49 -162 0
-40 -39 50 -162 0
-41 -51 40 -162 0
-41 -53 42 -162 0
-41 -54 43 -162 0
-41 -55 44 -162 0
-41 -56 45 -162 0
-41 -57 46 -162 0
-41 -58 47 -162 0
-41 -59 48 -162 0
-41 -60 49 -162 0
-41 -61 50 -162 0
-42 -62 40 -162 0
-42 -64 41 -162 0
-42 -65 43 -162 0
-42 -66 44 -162 0
-42 -67 45 -162 0
-42 -68 46 -162 0
-42 -69 47 -162 0
-42 -70 48 -162 0
-42 -71 49 -162 0
-42 -72 50 -162 0
-43 -73 40 -162 0
-43 -75 41 -162 0
-43 -76 42 -162 0
-43 -77 44 -162 0
-43 -78 45 -162 0
-43 -79 46 -162 0
-43 -80 47 -162 0
-43 -81 48 -162 0
-43 -82 49 -162 0
-43 -83 50 -162 0
-44 -84 40 -162 0
-44 -86 41 -162 0
-44 -87 42 -162 0
-44 -88 43 -162 0
-44 -89 45 -162 0
-44 -90 46 -162 0
-44 -91 47 -162 0
-44 -92 48 -162 0
-44 -93 49 -162 0
-44 -94 50 -162 0
-45 -95 40 -162 0
-45 -97 41 -162 0
-45 -98 42 -162 0
-45 -99 43 -162 0
-45 -100 44 -162 0
-45 -101 46 -162 0
-45 -102 47 -162 0
-45 -103 48 -162 0
-45 -104 49 -162 0
-45 -105 50 -162 0
-46 -106 40 -162 0
-46 -108 41 -162 0
-46 -109 42 -162 0
-46 -110 43 -162 0
-46 -111 44 -162 0
-46 -112 45 -162 0
-46 -113 47 -162 0
-46 -114 48 -162 0
-46 -115 49 -162 0
-46 -116 50 -162 0
-47 -117 40 -162 0
-47 -119 41 -162 0
-47 -120 42 -162 0
-47 -121 43 -162 0
-47 -122 44 -162 0
-47 -123 45 -162 0
-47 -124 46 -162 0
-47 -125 48 -162 0
-47 -126 49 -162 0
-47 -127 50 -162 0
-48 -128 40 -162 0
-48 -130 41 -162 0
-48 -131 42 -162 0
-48 -132 43 -162 0
-48 -133 44 -162 0
-48 -134 45 -162 0
-48 -135 46 -162 0
-48 -136 47 -162 0
-48 -137 49 -162 0
-48 -138 50 -162 0
-49 -139 40 -162 0
-49 -141 41 -162 0
-49 -142 42 -162 0
-49 -143 43 -162 0
-49 -144 44 -162 0
-49 -145 45 -162 0
-49 -146 46 -162 0
-49 -147 47 -162 0
-49 -148 48 -162 0
-49 -149 50 -162 0
-50 -150 40 -162 0
-50 -152 41 -162 0
-50 -153 42 -162 0
-50 -154 43 -162 0
-50 -155 44 -162 0
-50 -156 45 -162 0
-50 -157 46 -162 0
-50 -158 47 -162 0
-50 -159 48 -162 0
-50 -160 49 -162 0
-51 -29 52 -162 0
-51 -31 53 -162 0
-51 -32 54 -162 0
-51 -33 55 -162 0
-51 -34 56 -162 0
-51 -35 57 -162 0
-51 -36 58 -162 0
-51 -37 59 -162 0
-51 -38 60 -162 0
-51 -39 61 -162 0
-52 -40 51 -162 0
-52 -42 53 -162 0
-52 -43 54 -162 0
-52 -44 55 -162 0
-52 -45 56 -162 0
-52 -46 57 -162 0
-52 -47 58 -162 0
-52 -48 59 -162 0
-52 -49 60 -162 0
-52 -50 61 -162 0
-53 -62 51 -162 0
-53 -63 52 -162 0
-53 -65 54 -162 0
-53 -66 55 -162 0
-53 -67 56 -162 0
-53 -68 57 -162 0
-53 -69 58 -162 0
-53 -70 59 -162 0
-53 -71 60 -162 0
-53 -72 61 -162 0
-54 -73 51 -162 0
-54 -74 52 -162 0
-54 -76 53 -162 0
-54 -77 55 -162 0
-54 -78 56 -162 0
-54 -79 57 -162 0
-54 -80 58 -162 0
-54 -81 59 -162 0
-54 -82 60 -162 0
-54 -83 61 -162 0
-55 -84 51 -162 0
-55 -85 52 -162 0
-55 -87 53 -162 0
-55 -88 54 -162 0
-55 -89 56 -162 0
-55 -90 57 -162 0
-55 -91 58 -162 0
-55 -92 59 -162 0
-55 -93 60 -162 0
-55 -94 61 -162 0
-56 -95 51 -162 0
-56 -96 52 -162 0
-56 -98 53 -162 0
-56 -99 54 -162 0
-56 -100 55 -162 0
-56 -101 57 -162 0
-56 -102 58 -162 0
-56 -103 59 -162 0
-56 -104 60 -162 0
-56 -105 61 -162 0
-57 -106 51 -162 0
-57 -107 52 -162 0
-57 -109 53 -162 0
-57 -110 54 -162 0
-57 -111 55 -162 0
-57 -112 56 -162 0
-57 -113 58 -162 0
-57 -114 59 -162 0
-57 -115 60 -162 0
-57 -116 61 -162 0
-58 -117 51 -162 0
-58 -118 52 -162 0
-58 -120 53 -162 0
-58 -121 54 -162 0
-58 -122 55 -162 0
-58 -123 56 -162 0
-58 -124 57 -162 0
-58 -125 59 -162 0
-58 -126 60 -162 0
-58 -127 61 -162 0
-59 -128 51 -162 0
-59 -129 52 -162 0
-59 -131 53 -162 0
-59 -132 54 -162 0
-59 -133 55 -162 0
-59 -134 56 -162 0
-59 -135 57 -162 0
-59 -136 58 -162 0
-59 -137 60 -162 0
-59 -138 61 -162 0
-60 -139 51 -162 0
-60 -140 52 -162 0
-60 -142 53 -162 0
-60 -143 54 -162 0
-60 -144 55 -162 0
-60 -145 56 -162 0
-60 -146 57 -162 0
-60 -147 58 -162 0
-60 -148 59 -162 0
-60 -149 61 -162 0
-61 -150 51 -162 0
-61 -151 52 -162 0
-61 -153 53 -162 0
-61 -154 54 -162 0
-61 -155 55 -162 0
-61 -156 56 -162 0
-61 -157 57 -162 0
-61 -158 58 -162 0
-61 -159 59 -162 0
-61 -160 60 -162 0
-62 -29 63 -162 0
-62 -30 64 -162 0
-62 -32 65 -162 0
-62 -33 66 -162 0
-62 -34 67 -162 0
-62 -35 68 -162 0
-62 -36 69 -162 0
-62 -37 70 -162 0
-62 -38 71 -162 0
-62 -39 72 -162 0
-63 -40 62 -162 0
-63 -41 64 -162 0
-63 -43 65 -162 0
-63 -44 66 -162 0
-63 -45 67 -162 0
-63 -46 68 -162 0
-63 -47 69 -162 0
-63 -48 70 -162 0
-63 -49 71 -162 0
-63 -50 72 -162 0
-64 -51 62 -162 0
-64 -52 63 -162 0
-64 -54 65 -162 0
-64 -55 66 -162 0
-64 -56 67 -162 0
-64 -57 68 -162 0
-64 -58 69 -162 0
-64 -59 70 -162 0
-64 -60 71 -162 0
-64 -61 72 -162 0
-65 -73 62 -162 0
-65 -74 63 -162 0
-65 -75 64 -162 0
-65 -77 66 -162 0
-65 -78 67 -162 0
-65 -79 68 -162 0
-65 -80 69 -162 0
-65 -81 70 -162 0
-65 -82 71 -162 0
-65 -83 72 -162 0
-66 -84 62 -162 0
-66 -85 63 -162 0
-66 -86 64 -162 0
-66 -88 65 -162 0
-66 -89 67 -162 0
-66 -90 68 -162 0
-66 -91 69 -162 0
-66 -92 70 -162 0
-66 -93 71 -162 0
-66 -94 72 -162 0
-67 -95 62 -162 0
-67 -96 63 -162 0
-67 -97 64 -162 0
-67 -99 65 -162 0
-67 -100 66 -162 0
-67 -101 68 -162 0
-67 -102 69 -162 0
-67 -103 70 -162 0
-67 -104 71 -162 0
-67 -105 72 -162 0
-68 -106 62 -162 0
-68 -107 63 -162 0
-68 -108 64 -162 0
-68 -110 65 -162 0
-68 -111 66 -162 0
-68 -112 67 -162 0
-68 -113 69 -162 0
-68 -114 70 -162 0
-68 -115 71 -162 0
-68 -116 72 -162 0
-69 -117 62 -162 0
-69 -118 63 -162 0
-69 -119 64 -162 0
-69 -121 65 -162 0
-69 -122 66 -162 0
-69 -123 67 -162 0
-69 -124 68 -162 0
-69 -125 70 -162 0
-69 -126 71 -162 0
-69 -127 72 -162 0
-70 -128 62 -162 0
-70 -129 63 -162 0
-70 -130 64 -162 0
-70 -132 65 -162 0
-70 -133 66 -162 0
-70 -134 67 -162 0
-70 -135 68 -162 0
-70 -136 69 -162 0
-70 -137 71 -162 0
-70 -138 72 -162 0
-71 -139 62 -162 0
-71 -140 63 -162 0
-71 -141 64 -162 0
-71 -143 65 -162 0
-71 -144 66 -162 0
-71 -145 67 -162 0
-71 -146 68 -162 0
-71 -147 69 -162 0
-71 -148 70 -162 0
-71 -149 72 -162 0
-72 -150 62 -162 0
-72 -151 63 -162 0
-72 -152 64 -162 0
-72 -154 65 -162 0
-72 -155 66 -162 0
-72 -156 67 -162 0
-72 -157 68 -162 0
-72 -158 69 -162 0
-72 -159 70 -162 0
-72 -160 71 -162 0
-73 -29 74 -162 0
-73 -30 75 -162 0
-73 -31 76 -162 0
-73 -33 77 -162 0
-73 -34 78 -162 0
-73 -35 79 -162 0
-73 -36 80 -162 0
-73 -37 81 -162 0
-73 -38 82 -162 0
-73 -39 83 -162 0
-74 -40 73 -162 0
-74 -41 75 -162 0
-74 -42 76 -162 0
-74 -44 77 -162 0
-74 -45 78 -162 0
-74 -46 79 -162 0
-74 -47 80 -162 0
-74 -48 81 -162 0
-74 -49 82 -162 0
-74 -50 83 -162 0
-75 -51 73 -162 0
-75 -52 74 -162 0
-75 -53 76 -162 0
-75 -55 77 -162 0
-75 -56 78 -162 0
-75 -57 79 -162 0
-75 -58 80 -162 0
-75 -59 81 -162 0
-75 -60 82 -162 0
-75 -61 83 -162 0
-76 -62 73 -162 0
-76 -63 74 -162 0
-76 -64 75 -162 0
-76 -66 77 -162 0
-76 -67 78 -162 0
-76 -68 79 -162 0
-76 -69 80 -162 0
-76 -70 81 -162 0
-76 -71 82 -162 0
-76 -72 83 -162 0
-77 -84 73 -162 0
-77 -85 74 -162 0
-77 -86 75 -162 0
-77 -87 76 -162 0
-77 -89 78 -162 0
-77 -90 79 -162 0
-77 -91 80 -162 0
-77 -92 81 -162 0
-77 -93 82 -162 0
-77 -94 83 -162 0
-78 -95 73 -162 0
-78 -96 74 -162 0
-78 -97 75 -162 0
-78 -98 76 -162 0
-78 -100 77 -162 0
-78 -101 79 -162 0
-78 -102 80 -162 0
-78 -103 81 -162 0
-78 -104 82 -162 0
-78 -105 83 -162 0
-79 -106 73 -162 0
-79 -107 74 -162 0
-79 -108 75 -162 0
-79 -109 76 -162 0
-79 -111 77 -162 0
-79 -112 78 -162 0
-79 -113 80 -162 0
-79 -114 81 -162 0
-79 -115 82 -162 0
-79 -116 83 -162 0
-80 -117 73 -162 0
-80 -118 74 -162 0
-80 -119 75 -162 0
-80 -120 76 -162 0
-80 -122 77 -162 0
-80 -123 78 -162 0
-80 -124 79 -162 0
-80 -125 81 -162 0
-80 -126 82 -162 0
-80 -127 83 -162 0
-81 -128 73 -162 0
-81 -129 74 -162 0
-81 -130 75 -162 0
-81 -131 76 -162 0
-81 -133 77 -162 0
-81 -134 78 -162 0
-81 -135 79 -162 0
-81 -136 80 -162 0
-81 -137 82 -162 0
-81 -138 83 -162 0
-82 -139 73 -162 0
-82 -140 74 -162 0
-82 -141 75 -162 0
-82 -142 76 -162 0
-82 -144 77 -162 0
-82 -145 78 -162 0
-82 -146 79 -162 0
-82 -147 80 -162 0
-82 -148 81 -162 0
-82 -149 83 -162 0
-83 -150 73 -162 0
-83 -151 74 -162 0
-83 -152 75 -162 0
-83 -153 76 -162 0
-83 -155 77 -162 0
-83 -156 78 -162 0
-83 -157 79 -162 0
-83 -158 80 -162 0
-83 -159 81 -162 0
-83 -160 82 -162 0
-84 -29 85 -162 0
-84 -30 86 -162 0
-84 -31 87 -162 0
-84 -32 88 -162 0
-84 -34 89 -162 0
-84 -35 90 -162 0
-84 -36 91 -162 0
-84 -37 92 -162 0
-84 -38 93 -162 0
-84 -39 94 -162 0
-85 -40 84 -162 0
-85 -41 86 -162 0
-85 -42 87 -162 0
-85 -43 88 -162 0
-85 -45 89 -162 0
-85 -46 90 -162 0
-85 -47 91 -162 0
-85 -48 92 -162 0
-85 -49 93 -162 0
-85 -50 94 -162 0
-86 -51 84 -162 0
-86 -52 85 -162 0
-86 -53 87 -162 0
-86 -54 88 -162 0
-86 -56 89 -162 0
-86 -57 90 -162 0
-86 -58 91 -162 0
-86 -59 92 -162 0
-86 -60 93 -162 0
-86 -61 94 -162 0
-87 -62 84 -162 0
-87 -63 85 -162 0
-87 -64 86 -162 0
-87 -65 88 -162 0
-87 -67 89 -162 0
-87 -68 90 -162 0
-87 -69 91 -162 0
-87 -70 92 -162 0
-87 -71 93 -162 0
-87 -72 94 -162 0
-88 -73 84 -162 0
-88 -74 85 -162 0
-88 -75 86 -162 0
-88 -76 87 -162 0
-88 -78 89 -162 0
-88 -79 90 -162 0
-88 -80 91 -162 0
-88 -81 92 -162 0
-88 -82 93 -162 0
-88 -83 94 -162 0
-89 -95 84 -162 0
-89 -96 85 -162 0
-89 -97 86 -162 0
-89 -98 87 -162 0
-89 -99 88 -162 0
-89 -101 90 -162 0
-89 -102 91 -162 0
-89 -103 92 -162 0
-89 -104 93 -162 0
-89 -105 94 -162 0
-90 -106 84 -162 0
-90 -107 85 -162 0
-90 -108 86 -162 0
-90 -109 87 -162 0
-90 -110 88 -162 0
-90 -112 89 -162 0
-90 -113 91 -162 0
-90 -114 92 -162 0
-90 -115 93 -162 0
-90 -116 94 -162 0
-91 -117 84 -162 0
-91 -118 85 -162 0
-91 -119 86 -162 0
-91 -120 87 -162 0
-91 -121 88 -162 0
-91 -123 89 -162 0
-91 -124 90 -162 0
-91 -125 92 -162 0
-91 -126 93 -162 0
-91 -127 94 -162 0
-92 -128 84 -162 0
-92 -129 85 -162 0
-92 -130 86 -162 0
-92 -131 87 -162 0
-92 -132 88 -162 0
-92 -134 89 -162 0
-92 -135 90 -162 0
-92 -136 91 -162 0
-92 -137 93 -162 0
-92 -138 94 -162 0
-93 -139 84 -162 0
-93 -140 85 -162 0
-93 -141 86 -162 0
-93 -142 87 -162 0
-93 -143 88 -162 0
-93 -145 89 -162 0
-93 -146 90 -162 0
-93 -147 91 -162 0
-93 -148 92 -162 0
-93 -149 94 -162 0
-94 -150 84 -162 0
-94 -151 85 -162 0
-94 -152 86 -162 0
-94 -153 87 -162 0
-94 -154 88 -162 0
-94 -156 89 -162 0
-94 -157 90 -162 0
-94 -158 91 -162 0
-94 -159 92 -162 0
-94 -160 93 -162 0
-95 -29 96 -162 0
-95 -30 97 -162 0
-95 -31 98 -162 0
-95 -32 99 -162 0
-95 -33 100 -162 0
-95 -35 101 -162 0
-95 -36 102 -162 0
-95 -37 103 -162 0
-95 -38 104 -162 0
-95 -39 105 -162 0
-96 -40 95 -162 0
-96 -41 97 -162 0
-96 -42 98 -162 0
-96 -43 99 -162 0
-96 -44 100 -162 0
-96 -46 101 -162 0
-96 -47 102 -162 0
-96 -48 103 -162 0
-96 -49 104 -162 0
-96 -50 105 -162 0
-97 -51 95 -162 0
-97 -52 96 -162 0
-97 -53 98 -162 0
-97 -54 99 -162 0
-97 -55 100 -162 0
-97 -57 101 -162 0
-97 -58 102 -162 0
-97 -59 103 -162 0
-97 -60 104 -162 0
-97 -61 105 -162 0
-98 -62 95 -162 0
-98 -63 96 -162 0
-98 -64 97 -162 0
-98 -65 99 -162 0
-98 -66 100 -162 0
-98 -68 101 -162 0
-98 -69 102 -162 0
-98 -70 103 -162 0
-98 -71 104 -162 0
-98 -72 105 -162 0
-99 -73 95 -162 0
-99 -74 96 -162 0
-99 -75 97 -162 0
-99 -76 98 -162 0
-99 -77 100 -162 0
-99 -79 101 -162 0
-99 -80 102 -162 0
-99 -81 103 -162 0
-99 -82 104 -162 0
-99 -83 105 -162 0
-100 -84 95 -162 0
-100 -85 96 -162 0
-100 -86 97 -162 0
-100 -87 98 -162 0
-100 -88 99 -162 0
-100 -90 101 -162 0
-100 -91 102 -162 0
-100 -92 103 -162 0
-100 -93 104 -162 0
-100 -94 105 -162 0
-101 -106 95 -162 0
-101 -107 96 -162 0
-101 -108 97 -162 0
-101 -109 98 -162 0
-101 -110 99 -162 0
-101 -111 100 -162 0
-101 -113 102 -162 0
-101 -114 103 -162 0
-101 -115 104 -162 0
-101 -116 105 -162 0
-102 -117 95 -162 0
-102 -118 96 -162 0
-102 -119 97 -162 0
-102 -120 98 -162 0
-102 -121 99 -162 0
-102 -122 100 -162 0
-102 -124 101 -162 0
-102 -125 103 -162 0
-102 -126 104 -162 0
-102 -127 105 -162 0
-103 -128 95 -162 0
-103 -129 96 -162 0
-103 -130 97 -162 0
-103 -131 98 -162 0
-103 -132 99 -162 0
-103 -133 100 -162 0
-103 -135 101 -162 0
-103 -136 102 -162 0
-103 -137 104 -162 0
-103 -138 105 -162 0
-104 -139 95 -162 0
-104 -140 96 -162 0
-104 -141 97 -162 0
-104 -142 98 -162 0
-104 -143 99 -162 0
-104 -144 100 -162 0
-104 -146 101 -162 0
-104 -147 102 -162 0
-104 -148 103 -162 0
-104 -149 105 -162 0
-105 -150 95 -162 0
-105 -151 96 -162 0
-105 -152 97 -162 0
-105 -153 98 -162 0
-105 -154 99 -162 0
-105 -155 100 -162 0
-105 -157 101 -162 0
-105 -158 102 -162 0
-105 -159 103 -162 0
-105 -160 104 -162 0
-106 -29 107 -162 0
-106 -30 108 -162 0
-106 -31 109 -162 0
-106 -32 110 -162 0
-106 -33 111 -162 0
-106 -34 112 -162 0
-106 -36 113 -162 0
-106 -37 114 -162 0
-106 -38 115 -162 0
-106 -39 116 -162 0
-107 -40 106 -162 0
-107 -41 108 -162 0
-107 -42 109 -162 0
-107 -43 110 -162 0
-107 -44 111 -162 0
-107 -45 112 -162 0
-107 -47 113 -162 0
-107 -48 114 -162 0
-107 -49 115 -162 0
-107 -50 116 -162 0
-108 -51 106 -162 0
-108 -52 107 -162 0
-108 -53 109 -162 0
-108 -54 110 -162 0
-108 -55 111 -162 0
-108 -56 112 -162 0
-108 -58 113 -162 0
-108 -59 114 -162 0
-108 -60 115 -162 0
-108 -61 116 -162 0
-109 -62 106 -162 0
-109 -63 107 -162 0
-109 -64 108 -162 0
-109 -65 110 -162 0
-109 -66 111 -162 0
-109 -67 112 -162 0
-109 -69 113 -162 0
-109 -70 114 -162 0
-109 -71 115 -162 0
-109 -72 116 -162 0
-110 -73 106 -162 0
-110 -74 107 -162 0
-110 -75 108 -162 0
-110 -76 109 -162 0
-110 -77 111 -162 0
-110 -78 112 -162 0
-110 -80 113 -162 0
-110 -81 114 -162 0
-110 -82 115 -162 0
-110 -83 116 -162 0
-111 -84 106 -162 0
-111 -85 107 -162 0
-111 -86 108 -162 0
-111 -87 109 -162 0
-111 -88 110 -162 0
-111 -89 112 -162 0
-111 -91 113 -162 0
-111 -92 114 -162 0
-111 -93 115 -162 0
-111 -94 116 -162 0
-112 -95 106 -162 0
-112 -96 107 -162 0
-112 -97 108 -162 0
-112 -98 109 -162 0
-112 -99 110 -162 0
-112 -100 111 -162 0
-112 -102 113 -162 0
-112 -103 114 -162 0
-112 -104 115 -162 0
-112 -105 116 -162 0
-113 -117 106 -162 0
-113 -118 107 -162 0
-113 -119 108 -162 0
-113 -120 109 -162 0
-113 -121 110 -162 0
-113 -122 111 -162 0
-113 -123 112 -162 0
-113 -125 114 -162 0
-113 -126 115 -162 0
-113 -127 116 -162 0
-114 -128 106 -162 0
-114 -129 107 -162 0
-114 -130 108 -162 0
-114 -131 109 -162 0
-114 -132 110 -162 0
-114 -133 111 -162 0
-114 -134 112 -162 0
-114 -136 113 -162 0
-114 -137 115 -162 0
-114 -138 116 -162 0
-115 -139 106 -162 0
-115 -140 107 -162 0
-115 -141 108 -162 0
-115 -142 109 -162 0
-115 -143 110 -162 0
-115 -144 111 -162 0
-115 -145 112 -162 0
-115 -147 113 -162 0
-115 -148 114 -162 0
-115 -149 116 -162 0
-116 -150 106 -162 0
-116 -151 107 -162 0
-116 -152 108 -162 0
-116 -153 109 -162 0
-116 -154 110 -162 0
-116 -155 111 -162 0
-116 -156 112 -162 0
-116 -158 113 -162 0
-116 -159 114 -162 0
-116 -160 115 -162 0
-117 -29 118 -162 0
-117 -30 119 -162 0
-117 -31 120 -162 0
-117 -32 121 -162 0
-117 -33 122 -162 0
-117 -34 123 -162 0
-117 -35 124 -162 0
-117 -37 125 -162 0
-117 -38 126 -162 0
-117 -39 127 -162 0
-118 -40 117 -162 0
-118 -41 119 -162 0
-118 -42 120 -162 0
-118 -43 121 -162 0
-118 -44 122 -162 0
-118 -45 123 -162 0
-118 -46 124 -162 0
-118 -48 125 -162 0
-118 -49 126 -162 0
-118 -50 127 -162 0
-119 -51 117 -162 0
-119 -52 118 -162 0
-119 -53 120 -162 0
-119 -54 121 -162 0
-119 -55 122 -162 0
-119 -56 123 -162 0
-119 -57 124 -162 0
-119 -59 125 -162 0
-119 -60 126 -162 0
-119 -61 127 -162 0
-120 -62 117 -162 0
-120 -63 118 -162 0
-120 -64 119 -162 0
-120 -65 121 -162 0
-120 -66 122 -162 0
-120 -67 123 -162 0
-120 -68 124 -162 0
-120 -70 125 -162 0
-120 -71 126 -162 0
-120 -72 127 -162 0
-121 -73 117 -162 0
-121 -74 118 -162 0
-121 -75 119 -162 0
-121 -76 120 -162 0
-121 -77 122 -162 0
-121 -78 123 -162 0
-121 -79 124 -162 0
-121 -81 125 -162 0
-121 -82 126 -162 0
-121 -83 127 -162 0
-122 -84 117 -162 0
-122 -85 118 -162 0
-122 -86 119 -162 0
-122 -87 120 -162 0
-122 -88 121 -162 0
-122 -89 123 -162 0
-122 -90 124 -162 0
-122 -92 125 -162 0
-122 -93 126 -162 0
-122 -94 127 -162 0
-123 -95 117 -162 0
-123 -96 118 -162 0
-123 -97 119 -162 0
-123 -98 120 -162 0
-123 -99 121 -162 0
-123 -100 122 -162 0
-123 -101 124 -162 0
-123 -103 125 -162 0
-123 -104 126 -162 0
-123 -105 127 -162 0
-124 -106 117 -162 0
-124 -107 118 -162 0
-124 -108 119 -162 0
-124 -109 120 -162 0
-124 -110 121 -162 0
-124 -111 122 -162 0
-124 -112 123 -162 0
-124 -114 125 -162 0
-124 -115 126 -162 0
-124 -116 127 -162 0
-125 -128 117 -162 0
-125 -129 118 -162 0
-125 -130 119 -162 0
-125 -131 120 -162 0
-125 -132 121 -162 0
-125 -133 122 -162 0
-125 -134 123 -162 0
-125 -135 124 -162 0
-125 -137 126 -162 0
-125 -138 127 -162 0
-126 -139 117 -162 0
-126 -140 118 -162 0
-126 -141 119 -162 0
-126 -142 120 -162 0
-126 -143 121 -162 0
-126 -144 122 -162 0
-126 -145 123 -162 0
-126 -146 124 -162 0
-126 -148 125 -162 0
-126 -149 127 -162 0
-127 -150 117 -162 0
-127 -151 118 -162 0
-127 -152 119 -162 0
-127 -153 120 -162 0
-127 -154 121 -162 0
-127 -155 122 -162 0
-127 -156 123 -162 0
-127 -157 124 -162 0
-127 -159 125 -162 0
-127 -160 126 -162 0
-128 -29 129 -162 0
-128 -30 130 -162 0
-128 -31 131 -162 0
-128 -32 132 -162 0
-128 -33 133 -162 0
-128 -34 134 -162 0
-128 -35 135 -162 0
-128 -36 136 -162 0
-128 -38 137 -162 0
-128 -39 138 -162 0
-129 -40 128 -162 0
-129 -41 130 -162 0
-129 -42 131 -162 0
-129 -43 132 -162 0
-129 -44 133 -162 0
-129 -45 134 -162 0
-129 -46 135 -162 0
-129 -47 136 -162 0
-129 -49 137 -162 0
-129 -50 138 -162 0
-130 -51 128 -162 0
-130 -52 129 -162 0
-130 -53 131 -162 0
-130 -54 132 -162 0
-130 -55 133 -162 0
-130 -56 134 -162 0
-130 -57 135 -162 0
-130 -58 136 -162 0
-130 -60 137 -162 0
-130 -61 138 -162 0
-131 -62 128 -162 0
-131 -63 129 -162 0
-131 -64 130 -162 0
-131 -65 132 -162 0
-131 -66 133 -162 0
-131 -67 134 -162 0
-131 -68 135 -162 0
-131 -69 136 -162 0
-131 -71 137 -162 0
-131 -72 138 -162 0
-132 -73 128 -162 0
-132 -74 129 -162 0
-132 -75 130 -162 0
-132 -76 131 -162 0
-132 -77 133 -162 0
-132 -78 134 -162 0
-132 -79 135 -162 0
-132 -80 136 -162 0
-132 -82 137 -162 0
-132 -83 138 -162 0
-133 -84 128 -162 0
-133 -85 129 -162 0
-133 -86 130 -162 0
-133 -87 131 -162 0
-133 -88 132 -162 0
-133 -89 134 -162 0
-133 -90 135 -162 0
-133 -91 136 -162 0
-133 -93 137 -162 0
-133 -94 138 -162 0
-134 -95 128 -162 0
-134 -96 129 -162 0
-134 -97 130 -162 0
-134 -98 131 -162 0
-134 -99 132 -162 0
-134 -100 133 -162 0
-134 -101 135 -162 0
-134 -102 136 -162 0
-134 -104 137 -162 0
-134 -105 138 -162 0
-135 -106 128 -162 0
-135 -107 129 -162 0
-135 -108 130 -162 0
-135 -109 131 -162 0
-135 -110 132 -162 0
-135 -111 133 -162 0
-135 -112 134 -162 0
-135 -113 136 -162 0
-135 -115 137 -162 0
-135 -116 138 -162 0
-136 -117 128 -162 0
-136 -118 129 -162 0
-136 -119 130 -162 0
-136 -120 131 -162 0
-136 -121 132 -162 0
-136 -122 133 -162 0
-136 -123 134 -162 0
-136 -124 135 -162 0
-136 -126 137 -162 0
-136 -127 138 -162 0
-137 -139 128 -162 0
-137 -140 129 -162 0
-137 -141 130 -162 0
-137 -142 131 -162 0
-137 -143 132 -162 0
-137 -144 133 -162 0
-137 -145 134 -162 0
-137 -146 135 -162 0
-137 -147 136 -162 0
-137 -149 138 -162 0
-138 -150 128 -162 0
-138 -151 129 -162 0
-138 -152 130 -162 0
-138 -153 131 -162 0
-138 -154 132 -162 0
-138 -155 133 -162 0
-138 -156 134 -162 0
-138 -157 135 -162 0
-138 -158 136 -162 0
-138 -160 137 -162 0
-139 -29 140 -162 0
-139 -30 141 -162 0
-139 -31 142 -162 0
-139 -32 143 -162 0
-139 -33 144 -162 0
-139 -34 145 -162 0
-139 -35 146 -162 0
-139 -36 147 -162 0
-139 -37 148 -162 0
-139 -39 149 -162 0
-140 -40 139 -162 0
-140 -41 141 -162 0
-140 -42 142 -162 0
-140 -43 143 -162 0
-140 -44 144 -162 0
-140 -45 145 -162 0
-140 -46 146 -162 0
-140 -47 147 -162 0
-140 -48 148 -162 0
-140 -50 149 -162 0
-141 -51 139 -162 0
-141 -52 140 -162 0
-141 -53 142 -162 0
-141 -54 143 -162 0
-141 -55 144 -162 0
-141 -56 145 -162 0
-141 -57 146 -162 0
-141 -58 147 -162 0
-141 -59 148 -162 0
-141 -61 149 -162 0
-142 -62 139 -162 0
-142 -63 140 -162 0
-142 -64 141 -162 0
-142 -65 143 -162 0
-142 -66 144 -162 0
-142 -67 145 -162 0
-142 -68 146 -162 0
-142 -69 147 -162 0
-142 -70 148 -162 0
-142 -72 149 -162 0
-143 -73 139 -162 0
-143 -74 140 -162 0
-143 -75 141 -162 0
-143 -76 142 -162 0
-143 -77 144 -162 0
-143 -78 145 -162 0
-143 -79 146 -162 0
-143 -80 147 -162 0
-143 -81 148 -162 0
-143 -83 149 -162 0
-144 -84 139 -162 0
-144 -85 140 -162 0
-144 -86 141 -162 0
-144 -87 142 -162 0
-144 -88 143 -162 0
-144 -89 145 -162 0
-144 -90 146 -162 0
-144 -91 147 -162 0
-144 -92 148 -162 0
-144 -94 149 -162 0
-145 -95 139 -162 0
-145 -96 140 -162 0
-145 -97 141 -162 0
-145 -98 142 -162 0
-145 -99 143 -162 0
-145 -100 144 -162 0
-145 -101 146 -162 0
-145 -102 147 -162 0
-145 -103 148 -162 0
-145 -105 149 -162 0
-146 -106 139 -162 0
-146 -107 140 -162 0
-146 -108 141 -162 0
-146 -109 142 -162 0
-146 -110 143 -162 0
-146 -111 144 -162 0
-146 -112 145 -162 0
-146 -113 147 -162 0
-146 -114 148 -162 0
-146 -116 149 -162 0
-147 -117 139 -162 0
-147 -118 140 -162 0
-147 -119 141 -162 0
-147 -120 142 -162 0
-147 -121 143 -162 0
-147 -122 144 -162 0
-147 -123 145 -162 0
-147 -124 146 -162 0
-147 -125 148 -162 0
-147 -127 149 -162 0
-148 -128 139 -162 0
-148 -129 140 -162 0
-148 -130 141 -162 0
-148 -131 142 -162 0
-148 -132 143 -162 0
-148 -133 144 -162 0
-148 -134 145 -162 0
-148 -135 146 -162 0
-148 -136 147 -162 0
-148 -138 149 -162 0
-149 -150 139 -162 0
-149 -151 140 -162 0
-149 -152 141 -162 0
-149 -153 142 -162 0
-149 -154 143 -162 0
-149 -155 144 -162 0
-149 -156 145 -162 0
-149 -157 146 -162 0
-149 -158 147 -162 0
-149 -159 148 -162 0
-150 -29 151 -162 0
-150 -30 152 -162 0
-150 -31 153 -162 0
-150 -32 154 -162 0
-150 -33 155 -162 0
-150 -34 156 -162 0
-150 -35 157 -162 0
-150 -36 158 -162 0
-150 -37 159 -162 0
-150 -38 160 -162 0
-151 -40 150 -162 0
-151 -41 152 -162 0
-151 -42 153 -162 0
-151 -43 154 -162 0
-151 -44 155 -162 0
-151 -45 156 -162 0
-151 -46 157 -162 0
-151 -47 158 -162 0
-151 -48 159 -162 0
-151 -49 160 -162 0
-152 -51 150 -162 0
-152 -52 151 -162 0
-152 -53 153 -162 0
-152 -54 154 -162 0
-152 -55 155 -162 0
-152 -56 156 -162 0
-152 -57 157 -162 0
-152 -58 158 -162 0
-152 -59 159 -162 0
-152 -60 160 -162 0
-153 -62 150 -162 0
-153 -63 151 -162 0
-153 -64 152 -162 0
-153 -65 154 -162 0
-153 -66 155 -162 0
-153 -67 156 -162 0
-153 -68 157 -162 0
-153 -69 158 -162 0
-153 -70 159 -162 0
-153 -71 160 -162 0
-154 -73 150 -162 0
-154 -74 151 -162 0
-154 -75 152 -162 0
-154 -76 153 -162 0
-154 -77 155 -162 0
-154 -78 156 -162 0
-154 -79 157 -162 0
-154 -80 158 -162 0
-154 -81 159 -162 0
-154 -82 160 -162 0
-155 -84 150 -162 0
-155 -85 151 -162 0
-155 -86 152 -162 0
-155 -87 153 -162 0
-155 -88 154 -162 0
-155 -89 156 -162 0
-155 -90 157 -162 0
-155 -91 158 -162 0
-155 -92 159 -162 0
-155 -93 160 -162 0
-156 -95 150 -162 0
-156 -96 151 -162 0
-156 -97 152 -162 0
-156 -98 153 -162 0
-156 -99 154 -162 0
-156 -100 155 -162 0
-156 -101 157 -162 0
-156 -102 158 -162 0
-156 -103 159 -162 0
-156 -104 160 -162 0
-157 -106 150 -162 0
-157 -107 151 -162 0
-157 -108 152 -162 0
-157 -109 153 -162 0
-157 -110 154 -162 0
-157 -111 155 -162 0
-157 -112 156 -162 0
-157 -113 158 -162 0
-157 -114 159 -162 0
-157 -115 160 -162 0
-158 -117 150 -162 0
-158 -118 151 -162 0
-158 -119 152 -162 0
-158 -120 153 -162 0
-158 -121 154 -162 0
-158 -122 155 -162 0
-158 -123 156 -162 0
-158 -124 157 -162 0
-158 -125 159 -162 0
-158 -126 160 -162 0
-159 -128 150 -162 0
-159 -129 151 -162 0
-159 -130 152 -162 0
-159 -131 153 -162 0
-159 -132 154 -162 0
-159 -133 155 -162 0
-159 -134 156 -162 0
-159 -135 157 -162 0
-159 -136 158 -162 0
-159 -137 160 -162 0
-160 -139 150 -162 0
-160 -140 151 -162 0
-160 -141 152 -162 0
-160 -142 153 -162 0
-160 -143 154 -162 0
-160 -144 155 -162 0
-160 -145 156 -162 0
-160 -146 157 -162 0
-160 -147 158 -162 0
-160 -148 159 -162 0
40 51 62 73 84 95 106 117 128 139 150 -162 0
29 52 63 74 85 96 107 118 129 140 151 -162 0
30 41 64 75 86 97 108 119 130 141 152 -162 0
31 42 53 76 87 98 109 120 131 142 153 -162 0
32 43 54 65 88 99 110 121 132 143 154 -162 0
33 44 55 66 77 100 111 122 133 144 155 -162 0
34 45 56 67 78 89 112 123 134 145 156 -162 0
35 46 57 68 79 90 101 124 135 146 157 -162 0
36 47 58 69 80 91 102 113 136 147 158 -162 0
37 48 59 70 81 92 103 114 125 148 159 -162 0
38 49 60 71 82 93 104 115 126 137 160 -162 0
39 50 61 72 83 94 105 116 127 138 149 -162 0
161 162 0
